c colouring generated by benchmark framework
p edge 385 19095
v 1 19
v 2 14
v 3 16
v 4 11
v 5 24
v 6 4
v 7 25
v 8 13
v 9 14
v 10 7
v 11 27
v 12 19
v 13 0
v 14 3
v 15 44
v 16 6
v 17 14
v 18 2
v 19 35
v 20 6
v 21 26
v 22 32
v 23 12
v 24 4
v 25 40
v 26 25
v 27 24
v 28 34
v 29 27
v 30 22
v 31 17
v 32 6
v 33 10
v 34 4
v 35 34
v 36 35
v 37 15
v 38 3
v 39 44
v 40 34
v 41 9
v 42 15
v 43 14
v 44 34
v 45 23
v 46 12
v 47 17
v 48 22
v 49 23
v 50 2
v 51 32
v 52 20
v 53 22
v 54 26
v 55 27
v 56 11
v 57 3
v 58 28
v 59 27
v 60 15
v 61 9
v 62 6
v 63 17
v 64 34
v 65 25
v 66 4
v 67 14
v 68 32
v 69 19
v 70 41
v 71 18
v 72 12
v 73 16
v 74 10
v 75 23
v 76 29
v 77 18
v 78 2
v 79 6
v 80 30
v 81 29
v 82 21
v 83 10
v 84 32
v 85 32
v 86 1
v 87 33
v 88 18
v 89 12
v 90 36
v 91 16
v 92 6
v 93 18
v 94 7
v 95 17
v 96 3
v 97 16
v 98 19
v 99 32
v 100 1
v 101 5
v 102 11
v 103 37
v 104 8
v 105 28
v 106 36
v 107 22
v 108 27
v 109 15
v 110 3
v 111 4
v 112 5
v 113 1
v 114 9
v 115 2
v 116 8
v 117 40
v 118 7
v 119 30
v 120 2
v 121 5
v 122 37
v 123 0
v 124 4
v 125 3
v 126 9
v 127 8
v 128 24
v 129 26
v 130 6
v 131 20
v 132 6
v 133 7
v 134 15
v 135 1
v 136 30
v 137 12
v 138 30
v 139 13
v 140 0
v 141 12
v 142 1
v 143 23
v 144 7
v 145 29
v 146 9
v 147 20
v 148 27
v 149 11
v 150 14
v 151 6
v 152 4
v 153 27
v 154 31
v 155 21
v 156 28
v 157 1
v 158 2
v 159 44
v 160 25
v 161 9
v 162 41
v 163 5
v 164 22
v 165 20
v 166 14
v 167 21
v 168 12
v 169 11
v 170 0
v 171 2
v 172 18
v 173 12
v 174 23
v 175 8
v 176 7
v 177 40
v 178 39
v 179 25
v 180 0
v 181 29
v 182 10
v 183 26
v 184 21
v 185 0
v 186 39
v 187 12
v 188 3
v 189 3
v 190 17
v 191 40
v 192 8
v 193 16
v 194 36
v 195 27
v 196 24
v 197 8
v 198 36
v 199 16
v 200 11
v 201 30
v 202 10
v 203 6
v 204 13
v 205 29
v 206 12
v 207 36
v 208 13
v 209 8
v 210 23
v 211 12
v 212 29
v 213 25
v 214 19
v 215 32
v 216 6
v 217 0
v 218 29
v 219 25
v 220 32
v 221 22
v 222 14
v 223 18
v 224 39
v 225 6
v 226 23
v 227 21
v 228 5
v 229 4
v 230 20
v 231 5
v 232 13
v 233 38
v 234 41
v 235 1
v 236 6
v 237 2
v 238 8
v 239 11
v 240 3
v 241 39
v 242 7
v 243 8
v 244 26
v 245 39
v 246 30
v 247 4
v 248 31
v 249 28
v 250 0
v 251 34
v 252 6
v 253 13
v 254 24
v 255 3
v 256 2
v 257 27
v 258 21
v 259 9
v 260 28
v 261 16
v 262 18
v 263 19
v 264 6
v 265 25
v 266 16
v 267 14
v 268 15
v 269 32
v 270 19
v 271 14
v 272 26
v 273 25
v 274 4
v 275 0
v 276 6
v 277 0
v 278 10
v 279 22
v 280 4
v 281 9
v 282 6
v 283 17
v 284 13
v 285 29
v 286 16
v 287 18
v 288 15
v 289 14
v 290 32
v 291 5
v 292 31
v 293 6
v 294 36
v 295 25
v 296 29
v 297 8
v 298 24
v 299 16
v 300 33
v 301 11
v 302 24
v 303 31
v 304 19
v 305 16
v 306 13
v 307 15
v 308 5
v 309 0
v 310 23
v 311 25
v 312 28
v 313 3
v 314 9
v 315 29
v 316 3
v 317 28
v 318 39
v 319 13
v 320 17
v 321 2
v 322 9
v 323 10
v 324 5
v 325 16
v 326 8
v 327 6
v 328 20
v 329 10
v 330 15
v 331 9
v 332 24
v 333 12
v 334 16
v 335 24
v 336 12
v 337 3
v 338 1
v 339 33
v 340 4
v 341 5
v 342 11
v 343 13
v 344 5
v 345 35
v 346 15
v 347 7
v 348 23
v 349 29
v 350 24
v 351 10
v 352 12
v 353 1
v 354 18
v 355 35
v 356 9
v 357 0
v 358 10
v 359 9
v 360 0
v 361 35
v 362 11
v 363 17
v 364 1
v 365 7
v 366 27
v 367 14
v 368 1
v 369 19
v 370 42
v 371 12
v 372 43
v 373 0
v 374 20
v 375 21
v 376 22
v 377 1
v 378 28
v 379 15
v 380 2
v 381 4
v 382 0
v 383 28
v 384 44
v 385 0
